networks/zoo_58_325/zoo_58_325.sol
<?xml version = "1.0" encoding="UTF-8" standalone="yes"?>
<CPLEXSolution version="1.2">
 <header
   problemName="networks/zoo_58_325/zoo_58_325.lp"
   solutionName="incumbent"
   solutionIndex="-1"
   objectiveValue="31"
   solutionTypeValue="3"
   solutionTypeString="primal"
   solutionStatusValue="101"
   solutionStatusString="integer optimal solution"
   solutionMethodString="mip"
   primalFeasible="1"
   dualFeasible="1"
   MIPNodes="0"
   MIPIterations="5244"
   writeLevel="3"/>
 <quality
   epInt="1.0000000000000001e-05"
   epRHS="9.9999999999999995e-07"
   maxIntInfeas="0"
   maxPrimalInfeas="0"
   maxX="3.0001000000000024"
   maxSlack="9.0001000000000033"/>
 <variables>
  <variable name="Y(2,3)" index="56" value="1"/>
  <variable name="Y(4,5)" index="166" value="1"/>
  <variable name="Y(13,14)" index="661" value="1"/>
  <variable name="Y(15,16)" index="771" value="1"/>
  <variable name="Y(18,20)" index="937" value="1"/>
  <variable name="Y(30,10)" index="1575" value="1"/>
  <variable name="Y(46,29)" index="2457" value="1"/>
  <variable name="Y(58,8)" index="3085" value="1"/>
  <variable name="Y(59,6)" index="3137" value="1"/>
  <variable name="Y(60,6)" index="3191" value="1"/>
  <variable name="Y(64,6)" index="3407" value="1"/>
  <variable name="Y(82,11)" index="4384" value="1"/>
  <variable name="Y(98,4)" index="5241" value="1"/>
  <variable name="Y(109,9)" index="5840" value="1"/>
  <variable name="Y(126,8)" index="6757" value="1"/>
  <variable name="Y(136,8)" index="7297" value="1"/>
  <variable name="Y(159,23)" index="8553" value="1"/>
  <variable name="Y(166,7)" index="8916" value="1"/>
  <variable name="Y(177,1)" index="9504" value="1"/>
  <variable name="Y(183,26)" index="9852" value="1"/>
  <variable name="Y(189,25)" index="10175" value="1"/>
  <variable name="Y(197,17)" index="10600" value="1"/>
  <variable name="Y(207,27)" index="11149" value="1"/>
  <variable name="Y(213,13)" index="11460" value="1"/>
  <variable name="Y(220,2)" index="11827" value="1"/>
  <variable name="Y(227,12)" index="12215" value="1"/>
  <variable name="Y(234,24)" index="12604" value="1"/>
  <variable name="Y(251,18)" index="13517" value="1"/>
  <variable name="Y(253,22)" index="13628" value="1"/>
  <variable name="Y(281,1)" index="15120" value="1"/>
  <variable name="Y(315,15)" index="16970" value="1"/>
  <variable name="X(1,2,220)" index="17769" value="1"/>
  <variable name="X(1,4,15)" index="17889" value="1"/>
  <variable name="X(1,10,30)" index="18229" value="1"/>
  <variable name="X(1,27,177)" index="18701" value="1"/>
  <variable name="X(1,30,281)" index="19130" value="1"/>
  <variable name="X(2,1,30)" index="19204" value="1"/>
  <variable name="X(2,31,220)" index="19719" value="1"/>
  <variable name="X(3,29,46)" index="19870" value="1"/>
  <variable name="X(3,32,2)" index="20151" value="1"/>
  <variable name="X(4,1,220)" index="20694" value="1"/>
  <variable name="X(4,16,15)" index="20814" value="1"/>
  <variable name="X(4,26,183)" index="21307" value="1"/>
  <variable name="X(4,33,98)" index="21547" value="1"/>
  <variable name="X(5,8,58)" index="21832" value="1"/>
  <variable name="X(5,34,4)" index="22103" value="1"/>
  <variable name="X(6,7,59)" index="22483" value="1"/>
  <variable name="X(6,8,60)" index="22809" value="1"/>
  <variable name="X(6,35,64)" index="23138" value="1"/>
  <variable name="X(7,6,64)" index="23463" value="1"/>
  <variable name="X(7,8,109)" index="23833" value="1"/>
  <variable name="X(7,10,315)" index="24364" value="1"/>
  <variable name="X(7,36,166)" index="24540" value="1"/>
  <variable name="X(8,5,4)" index="24703" value="1"/>
  <variable name="X(8,6,136)" index="25160" value="1"/>
  <variable name="X(8,7,315)" index="25664" value="1"/>
  <variable name="X(8,9,109)" index="25783" value="1"/>
  <variable name="X(8,26,98)" index="26097" value="1"/>
  <variable name="X(8,29,58)" index="26382" value="1"/>
  <variable name="X(8,37,126)" index="26775" value="1"/>
  <variable name="X(9,8,98)" index="27072" value="1"/>
  <variable name="X(9,38,109)" index="27408" value="1"/>
  <variable name="X(10,1,177)" index="27801" value="1"/>
  <variable name="X(10,7,166)" index="28115" value="1"/>
  <variable name="X(10,14,13)" index="28287" value="1"/>
  <variable name="X(10,15,315)" index="28914" value="1"/>
  <variable name="X(10,39,30)" index="28954" value="1"/>
  <variable name="X(11,28,126)" index="29375" value="1"/>
  <variable name="X(11,40,82)" index="29656" value="1"/>
  <variable name="X(12,29,136)" index="30035" value="1"/>
  <variable name="X(12,41,227)" index="30451" value="1"/>
  <variable name="X(13,26,159)" index="30708" value="1"/>
  <variable name="X(13,42,213)" index="31087" value="1"/>
  <variable name="X(14,10,166)" index="31365" value="1"/>
  <variable name="X(14,43,13)" index="31537" value="1"/>
  <variable name="X(15,10,177)" index="32026" value="1"/>
  <variable name="X(15,44,315)" index="32489" value="1"/>
  <variable name="X(16,4,183)" index="32682" value="1"/>
  <variable name="X(16,45,15)" index="32839" value="1"/>
  <variable name="X(17,26,189)" index="33338" value="1"/>
  <variable name="X(17,46,197)" index="33671" value="1"/>
  <variable name="X(18,26,197)" index="33996" value="1"/>
  <variable name="X(18,47,251)" index="34375" value="1"/>
  <variable name="X(19,29,207)" index="34656" value="1"/>
  <variable name="X(20,26,213)" index="34987" value="1"/>
  <variable name="X(20,49,18)" index="35117" value="1"/>
  <variable name="X(22,51,253)" index="35677" value="1"/>
  <variable name="X(23,22,253)" index="36002" value="1"/>
  <variable name="X(23,25,234)" index="36308" value="1"/>
  <variable name="X(23,26,227)" index="36626" value="1"/>
  <variable name="X(23,52,159)" index="36883" value="1"/>
  <variable name="X(24,53,234)" index="37283" value="1"/>
  <variable name="X(25,23,253)" index="37627" value="1"/>
  <variable name="X(25,24,234)" index="37933" value="1"/>
  <variable name="X(25,26,251)" index="38275" value="1"/>
  <variable name="X(25,54,189)" index="38538" value="1"/>
  <variable name="X(26,4,98)" index="38772" value="1"/>
  <variable name="X(26,8,126)" index="39125" value="1"/>
  <variable name="X(26,13,213)" index="39537" value="1"/>
  <variable name="X(26,17,197)" index="39846" value="1"/>
  <variable name="X(26,18,251)" index="40225" value="1"/>
  <variable name="X(26,20,18)" index="40317" value="1"/>
  <variable name="X(26,23,159)" index="40783" value="1"/>
  <variable name="X(26,25,189)" index="41138" value="1"/>
  <variable name="X(26,27,207)" index="41481" value="1"/>
  <variable name="X(26,28,82)" index="41681" value="1"/>
  <variable name="X(26,29,227)" index="42151" value="1"/>
  <variable name="X(26,55,183)" index="42432" value="1"/>
  <variable name="X(27,1,281)" index="42855" value="1"/>
  <variable name="X(27,26,18)" index="42917" value="1"/>
  <variable name="X(27,56,207)" index="43431" value="1"/>
  <variable name="X(28,11,82)" index="43631" value="1"/>
  <variable name="X(28,26,126)" index="44000" value="1"/>
  <variable name="X(29,3,2)" index="44201" value="1"/>
  <variable name="X(29,8,136)" index="44660" value="1"/>
  <variable name="X(29,12,227)" index="45076" value="1"/>
  <variable name="X(29,26,207)" index="45381" value="1"/>
  <variable name="X(29,58,46)" index="45545" value="1"/>
  <variable name="C(2,3)" index="45831" value="1"/>
  <variable name="C(4,5)" index="45838" value="1"/>
  <variable name="C(13,14)" index="45873" value="1"/>
  <variable name="C(15,4)" index="45878" value="1"/>
  <variable name="C(15,16)" index="45879" value="2"/>
  <variable name="C(18,26)" index="45890" value="1"/>
  <variable name="C(18,20)" index="45891" value="2"/>
  <variable name="C(30,1)" index="45934" value="1"/>
  <variable name="C(30,10)" index="45935" value="2"/>
  <variable name="C(46,29)" index="45999" value="1"/>
  <variable name="C(58,8)" index="46035" value="1"/>
  <variable name="C(59,6)" index="46037" value="3.0001000000000024"/>
  <variable name="C(60,6)" index="46041" value="3.0001000000000024"/>
  <variable name="C(64,6)" index="46055" value="1"/>
  <variable name="C(82,28)" index="46111" value="1"/>
  <variable name="C(82,11)" index="46112" value="2"/>
  <variable name="C(98,8)" index="46163" value="1"/>
  <variable name="C(98,26)" index="46164" value="2"/>
  <variable name="C(98,4)" index="46165" value="3"/>
  <variable name="C(109,8)" index="46198" value="1"/>
  <variable name="C(109,9)" index="46199" value="2"/>
  <variable name="C(126,28)" index="46277" value="1"/>
  <variable name="C(126,26)" index="46278" value="2"/>
  <variable name="C(126,8)" index="46279" value="3"/>
  <variable name="C(136,29)" index="46319" value="1"/>
  <variable name="C(136,8)" index="46320" value="2"/>
  <variable name="C(159,26)" index="46406" value="1"/>
  <variable name="C(159,23)" index="46407" value="2"/>
  <variable name="C(166,10)" index="46427" value="1"/>
  <variable name="C(166,7)" index="46428" value="2"/>
  <variable name="C(177,10)" index="46476" value="1"/>
  <variable name="C(177,1)" index="46477" value="2"/>
  <variable name="C(183,4)" index="46508" value="1"/>
  <variable name="C(183,26)" index="46509" value="2"/>
  <variable name="C(189,26)" index="46528" value="1"/>
  <variable name="C(189,25)" index="46529" value="2"/>
  <variable name="C(197,26)" index="46553" value="1"/>
  <variable name="C(197,17)" index="46554" value="2"/>
  <variable name="C(207,29)" index="46587" value="1"/>
  <variable name="C(207,26)" index="46588" value="2"/>
  <variable name="C(207,27)" index="46589" value="3"/>
  <variable name="C(213,26)" index="46607" value="1"/>
  <variable name="C(213,13)" index="46608" value="2"/>
  <variable name="C(220,1)" index="46630" value="1"/>
  <variable name="C(220,2)" index="46631" value="2"/>
  <variable name="C(227,26)" index="46656" value="1"/>
  <variable name="C(227,29)" index="46657" value="2"/>
  <variable name="C(227,12)" index="46658" value="3"/>
  <variable name="C(234,25)" index="46678" value="1"/>
  <variable name="C(234,24)" index="46679" value="2"/>
  <variable name="C(251,26)" index="46737" value="1"/>
  <variable name="C(251,18)" index="46738" value="2"/>
  <variable name="C(253,23)" index="46743" value="1"/>
  <variable name="C(253,22)" index="46744" value="2"/>
  <variable name="C(281,1)" index="46819" value="1"/>
  <variable name="C(315,7)" index="46928" value="1"/>
  <variable name="C(315,10)" index="46929" value="2"/>
  <variable name="C(315,15)" index="46930" value="3"/>
 </variables>
</CPLEXSolution>
